(declare-const term_to_project_onto0 Real)
(declare-const uninterp Int)
(declare-const uninterp0 Int)
(declare-const x Int)
(declare-const y Int)
(declare-const b Int)
(declare-const |a'| Int)
(declare-const term_to_project_onto Real)
(declare-const q Int)
(declare-const a Int)
(declare-const r Int)
(declare-const |b'| Int)
(assert (and (<= (- q) 0) (<= (+ (- r) 1) 0) (<= (+ (- a) 1) 0)
               (<= (+ (- b) 1) 0) (<= (+ (- y) 1) 0) (<= (+ (- x) 1) 0)
               (= (+ (- y) 1) 0) (= (+ x (- r) (- q)) 0) (= (+ b (- a)) 0)
               (= (+ b (- uninterp)) 0) (= (+ x (- r) (- uninterp0)) 0)
               (<= (- r) 0) (<= (+ (* 2 b) (- r)) 0)
               (<= (+ (* 2 uninterp) (- r)) 0) (= (+ |b'| (* -2 b)) 0)
               (= (+ |a'| (* -2 a)) 0) (<= 0 uninterp0) (<= q uninterp0)
               (<= uninterp0 q) (<= 1 uninterp) (<= a uninterp)
               (<= y uninterp) (<= uninterp a)
               (= term_to_project_onto0 (+ |a'| (- a)))
               (= term_to_project_onto (+ |b'| (- b)))))
(check-sat)
